numNurses = 240;
hours = 90;
demand = [28 32 31 52 42 18 46 35 41 19 8 11 5 58 16 22 36 22 13 47 36 31 31 2 37 2 22 21 57 32 47 11 0 12 56 44 19 56 49 57 20 47 47 24 52 48 12 25 41 17 18 44 53 51 59 2 59 31 30 44 1 41 57 25 59 57 41 33 28 35 59 56 47 52 48 45 34 29 34 38 41 38 38 24 55 8 54 28 56 39];
minHours = 17;
maxHours = 36;
maxConsec = 21;
maxPresence = 47;